************************************************************************
file with basedata            : j60_19.bas
initial value random generator: 1102884811
************************************************************************
projects                      :  1
jobs (incl. supersource/sink ):  62
horizon                       :  359
RESOURCES
  - renewable                 :  4   R
  - nonrenewable              :  0   N
  - doubly constrained        :  0   D
************************************************************************
PROJECT INFORMATION:
pronr.  #jobs rel.date duedate tardcost  MPM-Time
    1     60      0      102       57      102
************************************************************************
PRECEDENCE RELATIONS:
jobnr.    #modes  #successors   successors
   1        1          3           2   3   4
   2        1          1           5
   3        1          3          10  12  13
   4        1          2           6  30
   5        1          3           7   8  21
   6        1          1          38
   7        1          3           9  11  16
   8        1          1          14
   9        1          2          25  35
  10        1          1          35
  11        1          3          31  44  54
  12        1          1          55
  13        1          3          20  26  36
  14        1          2          15  17
  15        1          2          22  33
  16        1          2          23  46
  17        1          1          18
  18        1          2          19  24
  19        1          1          23
  20        1          3          28  32  57
  21        1          3          29  39  45
  22        1          1          32
  23        1          3          34  48  50
  24        1          2          27  42
  25        1          3          41  49  61
  26        1          1          47
  27        1          1          43
  28        1          1          33
  29        1          2          37  60
  30        1          1          54
  31        1          1          52
  32        1          2          46  55
  33        1          1          51
  34        1          2          43  53
  35        1          1          51
  36        1          1          47
  37        1          1          41
  38        1          3          40  42  46
  39        1          1          54
  40        1          1          56
  41        1          1          52
  42        1          1          58
  43        1          1          55
  44        1          1          53
  45        1          1          56
  46        1          1          48
  47        1          1          48
  48        1          1          61
  49        1          1          57
  50        1          1          53
  51        1          1          61
  52        1          1          57
  53        1          1          59
  54        1          1          60
  55        1          1          56
  56        1          1          58
  57        1          1          59
  58        1          1          59
  59        1          1          62
  60        1          1          62
  61        1          1          62
  62        1          0        
************************************************************************
REQUESTS/DURATIONS:
jobnr. mode duration  R 1  R 2  R 3  R 4
------------------------------------------------------------------------
  1      1     0       0    0    0    0
  2      1    10       0    8    0    0
  3      1     9       0    0    0    3
  4      1     4       0    0    9    0
  5      1     6       0    5    0    0
  6      1     7       0    1    0    0
  7      1     7       0    0    2    0
  8      1     5       0    0    0    6
  9      1     1       0    6    0    0
 10      1     7       0    0    6    0
 11      1     3       1    0    0    0
 12      1     2       1    0    0    0
 13      1     3       0    9    0    0
 14      1    10       0    6    0    0
 15      1     3       0    0    3    0
 16      1     5       0    2    0    0
 17      1     9       0    0    8    0
 18      1     9       0    0    1    0
 19      1     8       9    0    0    0
 20      1     7       0    4    0    0
 21      1     3       0    3    0    0
 22      1     3       0    2    0    0
 23      1     7       0    2    0    0
 24      1     4       9    0    0    0
 25      1     7       0    9    0    0
 26      1     3       0    4    0    0
 27      1    10       0    0    9    0
 28      1    10       0    2    0    0
 29      1     5       0    0    1    0
 30      1     1      10    0    0    0
 31      1     9       3    0    0    0
 32      1     7       0    0    0    4
 33      1     9       0    0    8    0
 34      1     4       0    8    0    0
 35      1     8       0    0    0    7
 36      1     9       0    0    0    5
 37      1    10       2    0    0    0
 38      1    10       1    0    0    0
 39      1     6       0    0    0    1
 40      1     8       4    0    0    0
 41      1     5       5    0    0    0
 42      1     9       0    9    0    0
 43      1    10       0    0    4    0
 44      1     8       0    1    0    0
 45      1     1       0    0    2    0
 46      1     1       0    9    0    0
 47      1     6       0    3    0    0
 48      1     1       0    0    0    4
 49      1     6       0    7    0    0
 50      1     1       6    0    0    0
 51      1     1       0    0    0    4
 52      1     7       0    0    0   10
 53      1     9       6    0    0    0
 54      1     9       0    0    0    6
 55      1     8       0    0    0   10
 56      1    10       5    0    0    0
 57      1     3       0    7    0    0
 58      1     1       0    0    1    0
 59      1     5       0    0    3    0
 60      1     4       0    0    6    0
 61      1     6      10    0    0    0
 62      1     0       0    0    0    0
************************************************************************
RESOURCEAVAILABILITIES:
  R 1  R 2  R 3  R 4
   16   19   18   16
************************************************************************
